p edge 20 57
e 1 7
e 1 8
e 1 13
e 1 17
e 1 18
e 1 19
e 2 3
e 2 11
e 2 12
e 2 17
e 2 19
e 2 20
e 3 4
e 3 7
e 3 8
e 3 11
e 3 13
e 3 14
e 3 15
e 3 19
e 4 6
e 4 9
e 4 16
e 5 14
e 5 15
e 5 16
e 5 18
e 6 7
e 6 14
e 6 15
e 6 18
e 7 8
e 7 10
e 7 11
e 7 12
e 7 19
e 8 12
e 8 15
e 8 16
e 8 17
e 8 19
e 9 15
e 9 20
e 10 11
e 10 14
e 10 17
e 10 19
e 11 13
e 11 15
e 11 17
e 12 14
e 12 15
e 12 19
e 13 16
e 13 18
e 16 18
e 18 19